data;


param d:= 100;
param r:=5;
param p:=0.500000;
param M:=1000;
param U:=
         1         1       -2.178302e+00
         2         1        8.852169e-01
         3         1        1.601540e-03
         4         1       -9.631270e-01
         5         1        4.153280e-01
         6         1       -1.652449e-01
         7         1       -1.935020e+00
         8         1        6.357467e-01
         9         1        6.840247e-01
        10         1       -1.865032e-01
        11         1       -4.902381e-01
        12         1        2.045000e+00
        13         1        2.508500e-01
        14         1        2.040465e-01
        15         1       -4.605461e-01
        16         1        7.254564e-02
        17         1        8.103549e-01
        18         1       -7.884668e-01
        19         1       -3.191487e-01
        20         1       -4.541027e-01
        21         1        3.240869e-01
        22         1        2.241465e-01
        23         1        8.613970e-01
        24         1       -6.202064e-01
        25         1       -3.382971e-01
        26         1       -2.088110e+00
        27         1        3.099551e-01
        28         1       -8.807302e-01
        29         1        1.215704e+00
        30         1        1.800660e+00
        31         1        1.278359e+00
        32         1       -6.917704e-01
        33         1        5.919404e-01
        34         1       -6.716109e-01
        35         1        1.530316e+00
        36         1       -1.284853e-01
        37         1       -4.594019e-02
        38         1       -9.389799e-02
        39         1       -1.486666e+00
        40         1       -1.222703e+00
        41         1       -2.991531e+00
        42         1        1.333260e+00
        43         1       -4.343677e-01
        44         1       -1.517123e+00
        45         1       -8.459500e-01
        46         1        1.157274e+00
        47         1       -2.084673e-01
        48         1       -3.465927e-01
        49         1        1.039528e+00
        50         1       -4.637541e-01
        51         1        6.042954e-01
        52         1        3.981288e-01
        53         1       -2.106495e+00
        54         1        6.925095e-01
        55         1        7.425432e-01
        56         1       -2.124838e-01
        57         1        7.620175e-01
        58         1        1.953280e+00
        59         1       -4.280400e-01
        60         1        1.408918e-01
        61         1        1.915944e+00
        62         1        7.602384e-01
        63         1       -1.433130e+00
        64         1        4.595610e-01
        65         1        2.830926e-01
        66         1       -2.470049e-01
        67         1       -8.212866e-02
        68         1       -1.018173e+00
        69         1       -2.221639e-01
        70         1       -6.277057e-01
        71         1       -4.521343e-02
        72         1       -1.150162e+00
        73         1       -9.413905e-01
        74         1       -2.530884e-01
        75         1       -6.094155e-01
        76         1       -3.450790e-01
        77         1       -2.213042e-01
        78         1        3.502374e-01
        79         1        9.863045e-01
        80         1       -9.320245e-01
        81         1        2.255187e-01
        82         1        7.881195e-01
        83         1       -1.580528e+00
        84         1       -4.390412e-01
        85         1        3.564102e-01
        86         1       -2.180377e-02
        87         1       -1.017096e+00
        88         1        3.282023e-01
        89         1       -9.340869e-01
        90         1        7.437983e-01
        91         1       -5.235069e-01
        92         1       -1.966158e-01
        93         1       -3.341789e-01
        94         1       -1.196253e+00
        95         1       -2.154549e-01
        96         1       -3.447591e-01
        97         1       -1.723536e-01
        98         1        3.326225e-01
        99         1       -8.210749e-01
       100         1       -1.615671e+00
         1         2       -1.713172e-01
         2         2       -3.558145e-01
         3         2        1.569852e-01
         4         2        1.237550e+00
         5         2       -9.644139e-01
         6         2        5.314435e-01
         7         2        1.472172e+00
         8         2        1.225745e+00
         9         2       -2.468078e-01
        10         2       -8.224015e-02
        11         2        1.124912e-01
        12         2       -6.211699e-01
        13         2        1.477543e+00
        14         2        1.903750e+00
        15         2        1.602393e-01
        16         2        6.074451e-01
        17         2       -1.940715e+00
        18         2        4.088120e-01
        19         2        1.746002e-01
        20         2       -1.063898e+00
        21         2        4.749767e-01
        22         2        5.057937e-02
        23         2        5.595151e-02
        24         2        2.138605e-01
        25         2        5.008636e-02
        26         2        1.146517e+00
        27         2        9.015645e-01
        28         2       -1.785801e+00
        29         2       -6.685647e-01
        30         2        7.390001e-01
        31         2        1.024231e+00
        32         2        3.197619e-02
        33         2       -2.776830e-01
        34         2        4.333180e-01
        35         2        1.384525e+00
        36         2       -8.081044e-01
        37         2       -9.360219e-01
        38         2       -7.890761e-01
        39         2       -9.631859e-02
        40         2        9.241612e-01
        41         2        1.157304e+00
        42         2        5.245303e-01
        43         2        1.049634e+00
        44         2       -1.330252e+00
        45         2       -1.141113e+00
        46         2       -4.651361e-02
        47         2        4.919186e-01
        48         2       -7.425847e-01
        49         2       -1.350488e+00
        50         2       -3.546243e-01
        51         2       -4.028282e-01
        52         2        1.117227e+00
        53         2       -1.188121e+00
        54         2       -1.171788e+00
        55         2        1.509826e+00
        56         2        4.482116e-02
        57         2        1.717182e+00
        58         2        6.117990e-01
        59         2       -1.079071e+00
        60         2        2.707030e-01
        61         2       -1.160608e+00
        62         2       -3.850168e-01
        63         2       -1.404977e+00
        64         2       -2.372415e+00
        65         2        4.884028e-01
        66         2        7.506156e-01
        67         2       -5.502574e-02
        68         2        1.002598e+00
        69         2        1.151910e+00
        70         2       -4.514547e-01
        71         2       -9.280901e-02
        72         2        1.105315e+00
        73         2       -1.704339e+00
        74         2        1.549023e-01
        75         2       -1.286734e-01
        76         2       -4.952437e-01
        77         2        1.950461e-01
        78         2        2.216002e-01
        79         2       -1.306015e+00
        80         2       -1.867195e-01
        81         2        1.268472e+00
        82         2       -8.130256e-02
        83         2        8.172946e-01
        84         2        1.627469e-01
        85         2       -4.198336e-01
        86         2        1.099519e+00
        87         2       -3.742395e-01
        88         2       -4.919977e-02
        89         2        6.472364e-01
        90         2       -2.555416e+00
        91         2       -1.685024e+00
        92         2       -1.256915e+00
        93         2       -2.185853e-01
        94         2       -3.494881e-01
        95         2       -8.541445e-02
        96         2        9.457691e-02
        97         2        1.724171e-01
        98         2        1.559080e-01
        99         2        4.866652e-01
       100         2        4.721023e-03
         1         3       -9.242751e-02
         2         3        5.951656e-01
         3         3        3.029745e-01
         4         3       -8.404665e-01
         5         3        7.342728e-01
         6         3        3.145152e-01
         7         3        3.281407e-01
         8         3        5.560407e-01
         9         3        5.072095e-01
        10         3       -2.084352e-01
        11         3        1.087275e+00
        12         3        6.808770e-01
        13         3        4.214127e-01
        14         3        3.284905e-02
        15         3        8.465145e-01
        16         3       -1.812617e+00
        17         3       -4.631336e-02
        18         3       -2.061667e+00
        19         3        2.917496e-01
        20         3        9.856591e-01
        21         3       -3.657717e-01
        22         3       -4.054080e-01
        23         3        1.277218e+00
        24         3       -6.523298e-01
        25         3        2.939720e-02
        26         3        1.595625e+00
        27         3        3.111923e-01
        28         3        9.740364e-01
        29         3        7.942116e-01
        30         3        5.984438e-02
        31         3       -1.083033e-01
        32         3        4.802393e-01
        33         3       -1.023224e+00
        34         3        1.123515e-01
        35         3        1.086675e+00
        36         3        9.609346e-01
        37         3        3.303807e-01
        38         3        1.471295e-01
        39         3       -1.411656e+00
        40         3       -2.808340e-01
        41         3        1.739023e+00
        42         3        3.660668e-01
        43         3       -1.109605e+00
        44         3       -1.356822e+00
        45         3        2.211523e-01
        46         3        8.292148e-01
        47         3        8.608540e-01
        48         3       -2.716850e-01
        49         3       -5.992023e-01
        50         3        5.794621e-01
        51         3       -5.586719e-01
        52         3        1.397365e+00
        53         3        5.902645e-01
        54         3        1.682401e+00
        55         3        1.038994e+00
        56         3       -8.760930e-02
        57         3        4.120998e-01
        58         3       -1.229560e+00
        59         3        2.807549e-01
        60         3       -2.913199e-01
        61         3       -2.950633e-01
        62         3        1.309997e+00
        63         3       -2.871660e+00
        64         3        2.503308e-01
        65         3       -4.110395e-01
        66         3        3.609008e-01
        67         3       -6.368926e-01
        68         3       -1.299231e+00
        69         3        1.271522e+00
        70         3       -1.222685e-01
        71         3        4.370238e-01
        72         3        6.830089e-01
        73         3       -3.790553e-01
        74         3       -3.449891e-01
        75         3       -1.314099e-01
        76         3        1.593855e-01
        77         3        1.463732e-01
        78         3        6.966886e-01
        79         3       -4.264072e-01
        80         3        1.549716e-01
        81         3       -7.395602e-01
        82         3       -7.667490e-02
        83         3       -8.544117e-01
        84         3        1.224938e+00
        85         3        7.831434e-01
        86         3       -8.393432e-01
        87         3        7.077974e-01
        88         3       -2.469589e+00
        89         3       -8.463334e-01
        90         3       -2.011698e+00
        91         3        4.252187e-01
        92         3        6.892741e-01
        93         3       -6.628805e-01
        94         3       -3.028215e-01
        95         3       -4.823556e-01
        96         3        8.517509e-01
        97         3        1.513160e+00
        98         3       -2.756559e-01
        99         3       -5.546271e-01
       100         3       -6.015886e-01
         1         4        6.928721e-01
         2         4        9.252750e-01
         3         4        2.682538e-01
         4         4       -2.479362e-01
         5         4        1.009889e+00
         6         4        1.250382e+00
         7         4        6.503452e-01
         8         4        7.945604e-01
         9         4        2.255385e+00
        10         4        5.386211e-01
        11         4       -4.387544e-01
        12         4       -1.584009e+00
        13         4        6.776277e-01
        14         4        8.384677e-01
        15         4       -3.781927e-01
        16         4        5.717232e-01
        17         4       -4.586463e-01
        18         4       -5.503349e-01
        19         4       -2.529256e-03
        20         4        4.017404e-01
        21         4       -5.188905e-01
        22         4        1.421699e+00
        23         4        1.510839e-01
        24         4       -1.164891e+00
        25         4        6.367194e-01
        26         4       -7.307278e-01
        27         4       -1.925368e-01
        28         4        6.238116e-01
        29         4       -1.163009e+00
        30         4       -1.389937e+00
        31         4       -1.924056e+00
        32         4        1.889671e-01
        33         4       -5.815364e-02
        34         4       -1.642120e-01
        35         4       -1.987177e+00
        36         4       -1.578370e-01
        37         4        9.265775e-01
        38         4       -1.259932e-01
        39         4        3.029967e-01
        40         4       -9.750798e-01
        41         4        1.657091e+00
        42         4       -6.326073e-01
        43         4        8.858646e-01
        44         4        2.997997e-01
        45         4       -7.362023e-01
        46         4        1.913281e-01
        47         4        2.868769e-01
        48         4        7.924184e-02
        49         4       -4.489161e-01
        50         4        1.051218e+00
        51         4       -9.472068e-01
        52         4        1.022328e+00
        53         4       -2.100121e+00
        54         4        1.194174e+00
        55         4        4.010930e-01
        56         4       -1.221418e+00
        57         4       -3.168060e-01
        58         4        1.685122e+00
        59         4       -2.688503e+00
        60         4       -1.417975e+00
        61         4        5.818143e-01
        62         4        6.706396e-01
        63         4       -2.499589e-01
        64         4       -9.895131e-01
        65         4       -1.297271e+00
        66         4        2.180444e+00
        67         4        1.061726e+00
        68         4        4.562517e-01
        69         4       -6.603965e-02
        70         4       -1.382302e+00
        71         4        1.093114e+00
        72         4        4.127077e-02
        73         4       -1.628347e+00
        74         4       -1.180371e+00
        75         4       -1.319219e-01
        76         4        5.484430e-01
        77         4        2.965932e-01
        78         4        2.610141e-01
        79         4       -1.574425e-01
        80         4        9.055897e-01
        81         4       -5.323897e-01
        82         4        3.626145e-03
        83         4        1.902219e-01
        84         4        1.221257e+00
        85         4        1.708662e+00
        86         4       -5.002207e-01
        87         4       -5.559247e-01
        88         4        1.906985e+00
        89         4       -3.347463e-01
        90         4        1.198649e+00
        91         4        6.395283e-01
        92         4        1.642954e+00
        93         4       -1.166153e+00
        94         4        3.071652e-01
        95         4       -6.347519e-01
        96         4       -7.916507e-01
        97         4        2.274187e-01
        98         4       -1.906221e+00
        99         4        4.338085e-01
       100         4        2.265050e+00
         1         5        5.113707e-01
         2         5        1.197215e+00
         3         5       -9.418774e-01
         4         5       -9.359576e-01
         5         5        1.702993e+00
         6         5        1.434219e+00
         7         5        1.283072e+00
         8         5       -7.795453e-02
         9         5        4.136844e-01
        10         5        2.180124e-01
        11         5       -1.232061e+00
        12         5       -3.009760e-01
        13         5       -6.743747e-03
        14         5       -5.422294e-01
        15         5        9.887258e-01
        16         5       -8.812170e-01
        17         5        2.843620e-01
        18         5       -8.125253e-02
        19         5        9.328823e-01
        20         5        1.226112e+00
        21         5        6.696692e-01
        22         5       -1.705256e+00
        23         5        1.120190e+00
        24         5        5.209087e-01
        25         5        1.270195e+00
        26         5       -1.510293e+00
        27         5        7.281123e-02
        28         5       -3.828392e-01
        29         5        5.795070e-02
        30         5        1.935650e+00
        31         5       -1.839960e+00
        32         5        8.325371e-01
        33         5        5.527685e-01
        34         5       -5.770613e-02
        35         5        1.433287e-01
        36         5        7.667459e-01
        37         5       -3.253626e-01
        38         5       -8.393492e-01
        39         5        4.349026e-01
        40         5        4.518459e-01
        41         5       -7.422905e-01
        42         5       -1.775680e+00
        43         5        1.430316e+00
        44         5        1.012024e-02
        45         5        9.116538e-01
        46         5       -1.322852e-01
        47         5        6.482119e-01
        48         5        1.002945e+00
        49         5       -1.278049e-01
        50         5       -6.830633e-01
        51         5       -1.196627e-01
        52         5        2.968431e-01
        53         5        3.817230e-01
        54         5       -1.213202e+00
        55         5        6.694409e-01
        56         5       -7.846009e-01
        57         5        8.901941e-01
        58         5       -1.116866e+00
        59         5        1.639571e+00
        60         5       -6.130817e-02
        61         5        1.655011e-01
        62         5        5.393136e-01
        63         5        5.608107e-01
        64         5       -9.090934e-02
        65         5       -3.285841e-02
        66         5        4.525712e-01
        67         5        5.861067e-01
        68         5        8.261979e-02
        69         5       -1.543852e+00
        70         5       -5.779807e-01
        71         5       -1.438703e+00
        72         5       -8.432070e-01
        73         5        7.600083e-01
        74         5       -3.093379e-01
        75         5        1.276663e+00
        76         5        1.893447e+00
        77         5        5.996298e-02
        78         5        1.170670e-01
        79         5       -6.375409e-01
        80         5        7.610564e-01
        81         5       -6.160847e-01
        82         5       -1.780325e-02
        83         5        1.285613e-01
        84         5       -5.576795e-01
        85         5        6.450784e-01
        86         5       -1.998995e-01
        87         5       -5.581508e-01
        88         5       -1.192957e-01
        89         5        9.129690e-01
        90         5        1.455559e+00
        91         5        8.043469e-02
        92         5       -5.105616e-01
        93         5       -1.258649e-01
        94         5        5.656184e-01
        95         5       -6.049061e-01
        96         5        1.565563e+00
        97         5       -1.067454e+00
        98         5       -2.051540e+00
        99         5       -1.389353e-01
       100         5       -6.883788e-01
;

param theta:=
    1        1.321108e-01
    2       -2.637644e+00
    3       -5.306732e-01
    4        5.323832e-01
    5       -5.364638e-01
;
param X_true:=
    1        3.076870e-01
    2        5.899590e-01
    3        7.345696e-02
    4       -2.575333e+00
    5        1.833045e+00
    6       -1.694219e+00
    7       -4.654928e+00
    8       -2.979335e+00
    9        1.450998e+00
   10        4.726892e-01
   11       -5.110944e-01
   12        8.654314e-01
   13       -3.723349e+00
   14       -4.274618e+00
   15       -1.664479e+00
   16        1.463840e-01
   17        4.853825e+00
   18       -3.377943e-01
   19       -1.159324e+00
   20        1.779245e+00
   21       -1.651401e+00
   22        1.783038e+00
   23       -1.232073e+00
   24       -1.199467e+00
   25       -5.348381e-01
   26       -3.725530e+00
   27       -2.643763e+00
   28        4.614545e+00
   29        8.523215e-01
   30       -3.521475e+00
   31       -2.512461e+00
   32       -7.766054e-01
   33        1.026128e+00
   34       -1.347754e+00
   35       -5.161213e+00
   36        1.109214e+00
   37        2.955339e+00
   38        2.374023e+00
   39        7.347786e-01
   40       -3.211625e+00
   41       -3.090202e+00
   42       -7.858496e-01
   43       -2.532802e+00
   44        4.182512e+00
   45        1.899721e+00
   46        8.358699e-03
   47       -1.976893e+00
   48        1.561205e+00
   49        3.846987e+00
   50        1.492690e+00
   51        9.987414e-01
   52       -3.250770e+00
   53        1.219462e+00
   54        3.576039e+00
   55       -4.581247e+00
   56       -3.291544e-01
   57       -5.293552e+00
   58        7.931245e-01
   59        3.297837e-01
   60       -1.262826e+00
   61        3.691933e+00
   62        4.885077e-01
   63        4.606483e+00
   64        5.707426e+00
   65       -1.705724e+00
   66       -1.285965e+00
   67        7.230901e-01
   68       -1.890962e+00
   69       -2.949379e+00
   70        7.468860e-01
   71        1.360675e+00
   72       -2.955508e+00
   73        3.297606e+00
   74       -7.213972e-01
   75       -4.264966e-01
   76        4.523224e-01
   77       -4.956419e-01
   78       -8.317889e-01
   79        4.059586e+00
   80        3.609713e-01
   81       -2.876449e+00
   82        3.707369e-01
   83       -1.878821e+00
   84       -1.879602e-01
   85        1.302466e+00
   86       -2.616673e+00
   87        4.805951e-01
   88        2.562920e+00
   89       -2.049444e+00
   90        7.763381e+00
   91        4.447005e+00
   92        4.072120e+00
   93        3.308561e-01
   94        7.845824e-01
   95        4.393812e-01
   96       -2.008337e+00
   97       -5.868142e-01
   98       -1.352671e-01
   99       -7.923106e-01
  100        1.668512e+00
;
param X:=
    1        3.076870e-01
    2        5.899590e-01
    3        8.682956e-02
    4       -2.575333e+00
    5        1.833045e+00
    6       -1.694219e+00
    7       -4.654928e+00
    8        2.065809e+00
    9        1.542311e-02
   10        4.726892e-01
   11       -1.270882e+00
   12       -9.267285e-01
   13       -3.723349e+00
   14       -5.397670e-01
   15        1.397530e+00
   16        1.463840e-01
   17        4.590784e-01
   18        1.619242e-01
   19        7.088445e-01
   20        1.779245e+00
   21       -1.022815e+00
   22       -5.651367e-01
   23       -1.232073e+00
   24       -1.458116e+00
   25       -5.348381e-01
   26       -3.935691e-02
   27       -6.970749e-01
   28       -1.373265e+00
   29        8.523215e-01
   30       -3.801980e-01
   31        6.869174e-01
   32       -7.766054e-01
   33        2.365456e+00
   34       -1.347754e+00
   35       -5.161213e+00
   36       -1.957878e+00
   37        2.136839e+00
   38        2.613544e-01
   39       -1.441745e+00
   40       -3.211625e+00
   41       -1.801403e+00
   42        9.559240e-01
   43       -2.532802e+00
   44       -8.858351e-02
   45        7.419631e-01
   46        8.358699e-03
   47       -3.863190e-01
   48        1.561205e+00
   49        3.846987e+00
   50        1.492690e+00
   51        9.987414e-01
   52       -2.721118e-01
   53        1.219462e+00
   54        3.576039e+00
   55       -4.581247e+00
   56       -3.291544e-01
   57       -6.009789e-02
   58        7.931245e-01
   59        3.297837e-01
   60        1.121155e-01
   61       -3.108822e-01
   62        4.885077e-01
   63       -3.853062e-01
   64        5.707426e+00
   65       -1.421660e+00
   66       -2.325488e-02
   67        7.230901e-01
   68       -5.504809e-01
   69       -4.509216e-02
   70        5.451785e-02
   71        1.360675e+00
   72       -2.955508e+00
   73        3.297606e+00
   74       -2.992936e-01
   75       -4.264966e-01
   76       -5.942986e-01
   77       -4.956419e-01
   78       -8.317889e-01
   79        4.059586e+00
   80        3.609713e-01
   81       -2.876449e+00
   82        4.731529e-01
   83       -1.878821e+00
   84        2.015710e+00
   85       -1.539377e-01
   86        1.696046e-01
   87        1.379216e+00
   88       -3.865863e-02
   89       -2.049444e+00
   90        7.763381e+00
   91        4.447005e+00
   92        4.072120e+00
   93       -1.818233e+00
   94        7.845824e-01
   95        4.393812e-01
   96       -8.495489e-01
   97       -7.055278e-02
   98        1.579808e+00
   99       -7.923106e-01
  100        1.668512e+00
;
param outliervec:=
    1    0
    2    0
    3    1
    4    0
    5    0
    6    0
    7    0
    8    1
    9    1
   10    0
   11    1
   12    1
   13    0
   14    1
   15    1
   16    0
   17    1
   18    1
   19    1
   20    0
   21    1
   22    1
   23    0
   24    1
   25    0
   26    1
   27    1
   28    1
   29    0
   30    1
   31    1
   32    0
   33    1
   34    0
   35    0
   36    1
   37    1
   38    1
   39    1
   40    0
   41    1
   42    1
   43    0
   44    1
   45    1
   46    0
   47    1
   48    0
   49    0
   50    0
   51    0
   52    1
   53    0
   54    0
   55    0
   56    0
   57    1
   58    0
   59    0
   60    1
   61    1
   62    0
   63    1
   64    0
   65    1
   66    1
   67    0
   68    1
   69    1
   70    1
   71    0
   72    0
   73    0
   74    1
   75    0
   76    1
   77    0
   78    0
   79    0
   80    0
   81    0
   82    1
   83    0
   84    1
   85    1
   86    1
   87    1
   88    1
   89    0
   90    0
   91    0
   92    0
   93    1
   94    0
   95    0
   96    1
   97    1
   98    1
   99    0
  100    0
;